certificates/rado_a13_c15_N37.cnf
c Rad2 upper bound instance: x1 + 13*x2 - x3 = 15, interval [1,37]
p cnf 37 148
1 2 12 0
-1 -2 -12 0
1 3 25 0
-1 -3 -25 0
2 13 0
-2 -13 0
2 3 26 0
-2 -3 -26 0
1 3 0
-1 -3 0
2 3 14 0
-2 -3 -14 0
3 27 0
-3 -27 0
1 2 4 0
-1 -2 -4 0
2 4 15 0
-2 -4 -15 0
3 4 28 0
-3 -4 -28 0
1 3 5 0
-1 -3 -5 0
2 5 16 0
-2 -5 -16 0
3 5 29 0
-3 -5 -29 0
1 4 6 0
-1 -4 -6 0
2 6 17 0
-2 -6 -17 0
3 6 30 0
-3 -6 -30 0
1 5 7 0
-1 -5 -7 0
2 7 18 0
-2 -7 -18 0
3 7 31 0
-3 -7 -31 0
1 6 8 0
-1 -6 -8 0
2 8 19 0
-2 -8 -19 0
3 8 32 0
-3 -8 -32 0
1 7 9 0
-1 -7 -9 0
2 9 20 0
-2 -9 -20 0
3 9 33 0
-3 -9 -33 0
1 8 10 0
-1 -8 -10 0
2 10 21 0
-2 -10 -21 0
3 10 34 0
-3 -10 -34 0
1 9 11 0
-1 -9 -11 0
2 11 22 0
-2 -11 -22 0
3 11 35 0
-3 -11 -35 0
1 10 12 0
-1 -10 -12 0
2 12 23 0
-2 -12 -23 0
3 12 36 0
-3 -12 -36 0
1 11 13 0
-1 -11 -13 0
2 13 24 0
-2 -13 -24 0
3 13 37 0
-3 -13 -37 0
1 12 14 0
-1 -12 -14 0
2 14 25 0
-2 -14 -25 0
1 13 15 0
-1 -13 -15 0
2 15 26 0
-2 -15 -26 0
1 14 16 0
-1 -14 -16 0
2 16 27 0
-2 -16 -27 0
1 15 17 0
-1 -15 -17 0
2 17 28 0
-2 -17 -28 0
1 16 18 0
-1 -16 -18 0
2 18 29 0
-2 -18 -29 0
1 17 19 0
-1 -17 -19 0
2 19 30 0
-2 -19 -30 0
1 18 20 0
-1 -18 -20 0
2 20 31 0
-2 -20 -31 0
1 19 21 0
-1 -19 -21 0
2 21 32 0
-2 -21 -32 0
1 20 22 0
-1 -20 -22 0
2 22 33 0
-2 -22 -33 0
1 21 23 0
-1 -21 -23 0
2 23 34 0
-2 -23 -34 0
1 22 24 0
-1 -22 -24 0
2 24 35 0
-2 -24 -35 0
1 23 25 0
-1 -23 -25 0
2 25 36 0
-2 -25 -36 0
1 24 26 0
-1 -24 -26 0
2 26 37 0
-2 -26 -37 0
1 25 27 0
-1 -25 -27 0
1 26 28 0
-1 -26 -28 0
1 27 29 0
-1 -27 -29 0
1 28 30 0
-1 -28 -30 0
1 29 31 0
-1 -29 -31 0
1 30 32 0
-1 -30 -32 0
1 31 33 0
-1 -31 -33 0
1 32 34 0
-1 -32 -34 0
1 33 35 0
-1 -33 -35 0
1 34 36 0
-1 -34 -36 0
1 35 37 0
-1 -35 -37 0
