certificates/rado_a13_c15_N37.drat
-35 -37 0
d -35 -1 -37 0
11 13 35 0
-3 25 0
13 -36 35 0
-13 -37 0
3 -37 0
-37 0
-3 0
1 0
27 0
13 0
-15 0
-11 0
-29 0
-25 0
-2 0
26 0
4 0
35 0
5 0
18 0
14 0
36 0
22 0
-28 0
-24 0
-6 0
-33 0
-7 0
-20 0
-16 0
-12 0
-34 0
17 0
30 0
9 0
31 0
23 0
10 0
-19 0
-32 0
-21 0
-8 0
0
